p tw 146 6571 1 
1 2 
1 3 
1 4 
1 5 
1 6 
1 7 
1 8 
1 9 
1 10 
1 11 
1 12 
1 13 
1 14 
1 15 
1 16 
1 17 
1 18 
1 19 
1 20 
1 21 
1 22 
1 23 
1 24 
1 25 
1 26 
1 27 
1 28 
1 29 
1 30 
1 31 
1 32 
1 33 
1 34 
1 35 
1 36 
1 37 
1 38 
1 39 
1 40 
1 41 
1 42 
1 43 
1 44 
1 45 
1 46 
1 47 
1 48 
1 49 
1 50 
1 51 
1 52 
1 53 
1 54 
1 55 
1 56 
1 57 
1 58 
1 59 
1 60 
1 61 
1 62 
1 63 
1 64 
1 65 
1 66 
1 67 
1 68 
1 69 
1 70 
1 71 
1 72 
1 73 
2 74 
2 75 
2 76 
2 77 
2 78 
2 79 
2 80 
2 81 
2 82 
2 83 
2 84 
2 85 
2 86 
2 87 
2 88 
2 89 
2 90 
2 91 
2 92 
2 93 
2 94 
2 95 
2 96 
2 97 
2 98 
2 99 
2 100 
2 101 
2 102 
2 103 
2 104 
2 105 
2 106 
2 107 
2 108 
2 109 
2 110 
2 111 
2 112 
2 113 
2 114 
2 115 
2 116 
2 117 
2 118 
2 119 
2 120 
2 121 
2 122 
2 123 
2 124 
2 125 
2 126 
2 127 
2 128 
2 129 
2 130 
2 131 
2 132 
2 133 
2 134 
2 135 
2 136 
2 137 
2 138 
2 139 
2 140 
2 141 
2 142 
2 143 
2 144 
2 145 
2 146 
1 75 
1 76 
1 77 
1 78 
1 79 
1 80 
1 81 
1 82 
1 83 
2 74 
2 76 
2 84 
2 85 
2 86 
2 87 
2 88 
2 89 
2 90 
3 74 
3 75 
3 91 
3 92 
3 93 
3 94 
3 95 
3 96 
3 97 
4 74 
4 77 
4 105 
4 109 
4 113 
4 119 
4 120 
4 121 
4 122 
5 74 
5 78 
5 102 
5 114 
5 118 
5 130 
5 132 
5 137 
5 138 
6 74 
6 79 
6 99 
6 104 
6 110 
6 123 
6 133 
6 141 
6 142 
7 74 
7 80 
7 103 
7 111 
7 116 
7 134 
7 136 
7 139 
7 140 
8 74 
8 81 
8 98 
8 106 
8 115 
8 124 
8 131 
8 145 
8 146 
9 74 
9 82 
9 100 
9 107 
9 112 
9 125 
9 126 
9 128 
9 129 
10 74 
10 83 
10 101 
10 108 
10 117 
10 127 
10 135 
10 143 
10 144 
11 75 
11 84 
11 108 
11 111 
11 114 
11 119 
11 123 
11 124 
11 125 
12 75 
12 85 
12 101 
12 104 
12 116 
12 120 
12 128 
12 130 
12 131 
13 75 
13 86 
13 98 
13 107 
13 109 
13 133 
13 135 
13 137 
13 139 
14 75 
14 87 
14 102 
14 115 
14 117 
14 121 
14 129 
14 140 
14 141 
15 75 
15 88 
15 100 
15 105 
15 110 
15 132 
15 136 
15 144 
15 145 
16 75 
16 89 
16 99 
16 106 
16 113 
16 126 
16 134 
16 138 
16 143 
17 75 
17 90 
17 103 
17 112 
17 118 
17 122 
17 127 
17 142 
17 146 
18 76 
18 91 
18 104 
18 112 
18 115 
18 119 
18 136 
18 137 
18 143 
19 76 
19 92 
19 100 
19 106 
19 114 
19 120 
19 127 
19 139 
19 141 
20 76 
20 93 
20 103 
20 109 
20 117 
20 123 
20 126 
20 131 
20 132 
21 76 
21 94 
21 99 
21 107 
21 111 
21 121 
21 130 
21 144 
21 146 
22 76 
22 95 
22 101 
22 105 
22 118 
22 124 
22 129 
22 133 
22 134 
23 76 
23 96 
23 102 
23 113 
23 116 
23 125 
23 135 
23 142 
23 145 
24 76 
24 97 
24 98 
24 108 
24 110 
24 122 
24 128 
24 138 
24 140 
25 77 
25 84 
25 91 
25 98 
25 99 
25 100 
25 101 
25 102 
25 103 
26 77 
26 85 
26 92 
26 107 
26 117 
26 124 
26 136 
26 138 
26 142 
27 77 
27 86 
27 93 
27 108 
27 112 
27 130 
27 134 
27 141 
27 145 
28 77 
28 87 
28 94 
28 110 
28 118 
28 125 
28 131 
28 139 
28 143 
29 77 
29 88 
29 95 
29 104 
29 114 
29 126 
29 135 
29 140 
29 146 
30 77 
30 89 
30 96 
30 111 
30 115 
30 127 
30 128 
30 132 
30 133 
31 77 
31 90 
31 97 
31 106 
31 116 
31 123 
31 129 
31 137 
31 144 
32 78 
32 84 
32 92 
32 112 
32 113 
32 131 
32 133 
32 140 
32 144 
33 79 
33 84 
33 93 
33 106 
33 118 
33 121 
33 128 
33 135 
33 136 
34 80 
34 84 
34 94 
34 104 
34 109 
34 127 
34 129 
34 138 
34 145 
35 81 
35 84 
35 95 
35 107 
35 116 
35 122 
35 132 
35 141 
35 143 
36 82 
36 84 
36 96 
36 110 
36 117 
36 120 
36 134 
36 137 
36 146 
37 83 
37 84 
37 97 
37 105 
37 115 
37 126 
37 130 
37 139 
37 142 
38 78 
38 86 
38 91 
38 110 
38 116 
38 121 
38 124 
38 126 
38 127 
39 79 
39 85 
39 91 
39 108 
39 113 
39 129 
39 132 
39 139 
39 146 
40 80 
40 88 
40 91 
40 106 
40 117 
40 122 
40 125 
40 130 
40 133 
41 81 
41 87 
41 91 
41 109 
41 114 
41 128 
41 134 
41 142 
41 144 
42 82 
42 90 
42 91 
42 105 
42 111 
42 131 
42 135 
42 138 
42 141 
43 83 
43 89 
43 91 
43 107 
43 118 
43 120 
43 123 
43 140 
43 145 
44 78 
44 87 
44 96 
44 103 
44 104 
44 105 
44 106 
44 107 
44 108 
45 78 
45 88 
45 93 
45 98 
45 111 
45 120 
45 129 
45 142 
45 143 
46 78 
46 90 
46 95 
46 99 
46 117 
46 119 
46 128 
46 139 
46 145 
47 78 
47 85 
47 94 
47 100 
47 115 
47 122 
47 123 
47 134 
47 135 
48 78 
48 89 
48 97 
48 101 
48 109 
48 125 
48 136 
48 141 
48 146 
49 83 
49 85 
49 95 
49 102 
49 106 
49 109 
49 110 
49 111 
49 112 
50 80 
50 85 
50 96 
50 98 
50 118 
50 119 
50 126 
50 141 
50 144 
51 81 
51 85 
51 93 
51 99 
51 105 
51 125 
51 127 
51 137 
51 140 
52 82 
52 85 
52 97 
52 103 
52 114 
52 121 
52 133 
52 143 
52 145 
53 80 
53 90 
53 93 
53 101 
53 107 
53 110 
53 113 
53 114 
53 115 
54 82 
54 89 
54 93 
54 102 
54 104 
54 122 
54 124 
54 139 
54 144 
55 83 
55 87 
55 93 
55 100 
55 116 
55 119 
55 133 
55 138 
55 146 
56 80 
56 89 
56 95 
56 100 
56 108 
56 121 
56 131 
56 137 
56 142 
57 79 
57 86 
57 95 
57 103 
57 115 
57 120 
57 125 
57 138 
57 144 
58 82 
58 87 
58 95 
58 98 
58 113 
58 123 
58 127 
58 130 
58 136 
59 79 
59 87 
59 92 
59 101 
59 111 
59 122 
59 126 
59 137 
59 145 
60 79 
60 89 
60 94 
60 98 
60 105 
60 112 
60 114 
60 116 
60 117 
61 79 
61 90 
61 96 
61 100 
61 109 
61 124 
61 130 
61 140 
61 143 
62 79 
62 88 
62 97 
62 102 
62 107 
62 119 
62 127 
62 131 
62 134 
63 80 
63 86 
63 92 
63 102 
63 105 
63 123 
63 128 
63 143 
63 146 
64 81 
64 86 
64 97 
64 100 
64 104 
64 111 
64 113 
64 117 
64 118 
65 83 
65 86 
65 96 
65 99 
65 114 
65 122 
65 129 
65 131 
65 136 
66 82 
66 86 
66 94 
66 101 
66 106 
66 119 
66 132 
66 140 
66 142 
67 80 
67 87 
67 97 
67 99 
67 112 
67 120 
67 124 
67 132 
67 135 
68 81 
68 89 
68 92 
68 103 
68 110 
68 119 
68 129 
68 130 
68 135 
69 81 
69 88 
69 96 
69 101 
69 112 
69 121 
69 123 
69 138 
69 139 
70 81 
70 90 
70 94 
70 102 
70 108 
70 120 
70 126 
70 133 
70 136 
71 83 
71 88 
71 94 
71 103 
71 113 
71 124 
71 128 
71 137 
71 141 
72 82 
72 88 
72 92 
72 99 
72 108 
72 109 
72 115 
72 116 
72 118 
73 83 
73 90 
73 92 
73 98 
73 104 
73 121 
73 125 
73 132 
73 134 
